%chk=BHH
#P CAM-B3LYP/6-311+G** NoSymm Opt Freq SCF=XQC

BHH geometry optimization

0 1
 C                  2.39852731   -0.70816276    0.83654703
 C                  3.79368731   -0.70816276    0.83654703
 C                  4.49122531    0.49958824    0.83654703
 C                  3.79357131    1.70809724    0.83534803
 C                  2.39874631    1.70801924    0.83486903
 C                  1.70114531    0.49981324    0.83586503
 H                  4.34319531   -1.66067576    0.83786203
 H                  4.34377131    2.66024024    0.83528903
 H                  0.60154131    0.49999624    0.83568503
 O                  1.68343228    2.94625359    0.83362986
 H                  1.52437967    3.22354826   -0.07158279
 O                  1.68358733   -1.94661360    0.83713224
 H                  1.76308531   -2.36211821    1.69889554
 O                  5.92122507    0.49969227    0.83737147
 H                  6.24220148    0.49748413   -0.06737671

--Link1--
%chk=BHH
#P CAM-B3LYP/6-311+G** Guess=Read Geom=Check Pop=CHelpG

BHH charge distribution

0 1

