%chk=C:\Users\st024659\Desktop\charge_det\NpDs\npds.chk
# hf/3-21g geom=connectivity

Title Card Required

0 1
 C                 -6.97451578    0.13989380    0.00026300
 C                 -5.60171478    0.13989380    0.00026300
 C                 -4.87977678    1.36501480    0.00026300
 C                 -5.59764678    2.58888080    0.00063300
 C                 -7.01906278    2.55950780    0.00078700
 C                 -7.69056778    1.36153280    0.00049700
 H                 -2.91070378    0.44004980    0.00002000
 H                 -5.03692578   -0.80442820    0.00003500
 C                 -3.45804978    1.39455780    0.00000000
 C                 -4.87489678    3.81360680    0.00074800
 H                 -7.56630378    3.51396380    0.00086900
 H                 -8.79020478    1.33516580    0.00059900
 C                 -3.50203578    3.81367480    0.00047500
 C                 -2.78602378    2.59178280    0.00001600
 H                 -5.43935278    4.75814780    0.00100800
 H                 -1.68639578    2.61824780   -0.00016600
 S                 -2.59470340    5.34506237    0.00018695
 S                 -7.88188423   -1.39147241    0.00013354
 O                 -1.13594929    5.12794987    0.78363996
 O                 -2.31475543    5.82593762   -1.57438859
 O                 -3.48214461    6.51805030    0.79103928
 O                 -6.99489208   -2.56401582   -0.79188090
 O                 -8.16100520   -1.87326705    1.57457484
 O                 -9.34105012   -1.17386501   -0.78241480

 1 2 1.5 6 1.5 18 1.0
 2 3 1.5 8 1.0
 3 4 1.5 9 1.5
 4 5 1.5 10 1.5
 5 6 1.5 11 1.0
 6 12 1.0
 7 9 1.0
 8
 9 14 1.5
 10 13 1.5 15 1.0
 11
 12
 13 14 1.5 17 1.0
 14 16 1.0
 15
 16
 17 19 1.0 20 1.0 21 1.0
 18 22 1.0 23 1.0 24 1.0
 19
 20
 21
 22
 23
 24

