%chk=pyroh
%mem=500Mb
%NProcShared=4
# MP2/6-311+G** Opt

PyOH

0 1
 C                 -6.31505503   -1.18016737    0.00000000
 C                 -4.90817703   -1.18016737    0.00000000
 C                 -4.24148603    0.04643963    0.00000000
 C                 -4.99555903    1.22122663   -0.00024100
 C                 -6.39876103    1.11842163   -0.00038200
 N                 -7.05829103   -0.05652937   -0.00019700
 H                 -3.14294203    0.08621563   -0.00095000
 H                 -4.35344503   -2.12706837    0.00026400
 H                 -4.51152303    2.20615063   -0.00034200
 H                 -7.03211003    2.02348463   -0.00046300
 O                 -7.04721535   -2.40851636    0.00015794
 H                 -7.11128404   -2.74327445    0.89761670

--Link1--
%chk=pyroh
%mem=500Mb
%NProcShared=4
# MP2/6-311+G** Geom=Check Guess=Read Pop=CHelpG

PyOH

0 1
