%chk=span80
%mem=500Mb
%NProcShared=4
# MP2/6-311+G** Opt

span80

0 1
 O                 -2.94031116    3.10195423   -0.00022200
 C                 -2.14637069    5.43993747   -0.00015994
 H                 -2.71463028    5.68190008   -0.87390769
 C                 -0.83578063    6.24861148    0.00004619
 H                 -0.26723855    6.00663592   -0.87351419
 H                 -0.26751593    6.00664103    0.87378845
 O                 -0.20629918    0.66036455    0.00013829
 H                 -0.59668252   -0.04700806   -0.51834491
 O                  0.68534202    3.64422524   -0.00000527
 H                  1.19628382    3.14467006    0.64107437
 O                 -1.13808846    7.64629169   -0.00000542
 O                 -2.90620437    5.76333508    1.16730173
 H                 -3.65272656    6.31449368    0.92127565
 C                 -1.82080916    3.93474323   -0.00008900
 H                 -0.79249521    4.23049694    0.00031718
 C                 -0.66674316    3.17864423    0.00000000
 H                  0.18328773    3.82852680    0.00036975
 C                 -1.08147716    1.79127723    0.00000000
 H                 -0.72831410    0.78123983   -0.00054464
 C                 -2.46105916    1.79127723    0.00000000
 H                 -2.79522153    1.27149447    0.87353385
 H                 -2.82645896    1.29265626   -0.87336139
 C                  0.07848858    8.39780982   -0.00780361
 O                  0.04695037    9.65353482   -0.08350449
 C                  1.43188938    7.66790542    0.07672941
 H                  1.46488629    7.08004320    0.97016615
 H                  1.54678676    7.02984858   -0.77449445
 C                  2.57243245    8.70240826    0.10050742
 H                  3.51213657    8.19568813    0.17185779
 H                  2.54709176    9.28195919   -0.79859134
 C                  2.39697529    9.63208879    1.31562425
 H                  3.35009545    9.81264671    1.76713371
 H                  1.74678754    9.16894153    2.02812022
 C                  1.78552198   10.96848623    0.85544305
 H                  0.81384159   11.08397569    1.28833957
 H                  1.70372051   10.97470045   -0.21140740
 C                  2.69029517   12.12972079    1.30768168
 H                  2.23123517   13.06104821    1.04923797
 H                  2.82852185   12.08222205    2.36765209
 C                  4.05682814   12.01890234    0.60632092
 H                  4.63998561   11.25690318    1.07980234
 H                  3.90993715   11.76753938   -0.42330994
 C                  4.79546296   13.36656772    0.70539977
 H                  4.88486695   13.64955657    1.73341935
 H                  4.24403181   14.11528734    0.17602031
 C                  6.19907109   13.22934374    0.08680961
 H                  6.50206052   12.29919272   -0.34668374
 C                  7.05181452   14.28261858    0.08960340
 H                  8.00635879   14.19454474    0.56498560
 C                  6.65172640   15.60584720   -0.58906847
 H                  6.01946076   16.16643984    0.06734302
 H                  6.12646417   15.39625056   -1.49740147
 C                  7.91761313   16.42390343   -0.90516150
 H                  7.64095689   17.33439302   -1.39441607
 H                  8.55894365   15.85538742   -1.54577426
 C                  8.65864104   16.74977299    0.40490974
 H                  9.28137770   15.92345011    0.67747080
 H                  7.94598805   16.93093886    1.18221576
 C                  9.52908085   18.00418618    0.20395682
 H                 10.09849730   18.18900486    1.09080910
 H                 10.19325829   17.84910492   -0.62049339
 C                  8.62406738   19.21579925   -0.08680836
 H                  8.33948531   19.20903875   -1.11824782
 H                  7.74807189   19.16169107    0.52524083
 C                  9.38941818   20.51501715    0.22603503
 H                 10.29866853   20.53786805   -0.33756202
 H                  9.61647371   20.55240892    1.27099801
 C                  8.51933776   21.72753009   -0.15392870
 H                  8.27714370   21.68046462   -1.19509482
 H                  7.61817867   21.71460794    0.42282542
 C                  9.29483133   23.02637982    0.13451382
 H                 10.19377782   23.04137613   -0.44563300
 H                  8.68858664   23.86892352   -0.12526971
 H                  9.54094629   23.07128695    1.17485548

--Link1--
%chk=span80
%mem=500Mb
%NProcShared=4
# MP2/6-311+G** Geom=Check Guess=Read Pop=CHelpG

span80

0 1
